p cnf 9 12
c Encoding of pigeonhole problem for 3 holes and 3 pigeons
c Use direct encoding of at-most-one constraints
c At-least-one constraint
1 4 7 0
c At-least-one constraint
2 5 8 0
c At-least-one constraint
3 6 9 0
c Direct encoding of at-most-one constraint for literals [1, 2, 3]
-1 -2 0
-1 -3 0
-2 -3 0
c Direct encoding of at-most-one constraint for literals [4, 5, 6]
-4 -5 0
-4 -6 0
-5 -6 0
c Direct encoding of at-most-one constraint for literals [7, 8, 9]
-7 -8 0
-7 -9 0
-8 -9 0
